
%FILE DATA:	Soccer Computational Problem for MiniZinc Models	%
%AUTHOR:	Jack Wall	%
%CONTACT:  	116397063@umail.ucc.ie			%
%LAST UPDATE:	03/02/2020, 19:05:33						%
%DESCRIPTION: 	108 games played with 24 games left				%


n=12; %number of teams

%Games to play
games=[|8,7|3,8|9,11|6,11|5,4|10,6|2,9|12,7|5,9|9,4|5,6|3,2|9,10|4,2|10,1|7,4|2,4|9,7|11,5|7,5|5,1|7,9|8,6|11,7|];

%Initial points
iPoints=[35,21,30,26,23,24,13,29,17,20,22,29];

%POSITION CONSTRAINTS
% [|teamID, operator, position|...]
% operators index:
%  1 for =  operator
%  2 for >  operator
%  3 for >= operator
%  4 for <  operator
%  5 for <= operator
positionConstraints=[|1,3,1|5,1,2|4,5,3|];